NAME: random84
TYPE: TSP
DIMENSION: 84
EDGE_WEIGHT_TYPE: EXPLICIT
EDGE_WEIGHT_FORMAT: FULL_MATRIX
EDGE_WEIGHT_SECTION
0 645 645 17 645 645 645 645 645 645 645 645 645 645 645 645 645 645 645 645 645 645 645 645 645 645 645 645 645 645 645 645 645 645 645 9 645 645 645 645 645 645 645 645 645 645 645 645 645 645 645 645 645 645 645 645 645 645 645 645 645 645 645 645 645 645 645 645 645 645 25 10 645 645 645 15 645 645 645 645 645 645 645 645
645 0 645 645 645 645 645 645 645 645 645 645 24 645 645 645 645 22 645 645 11 645 645 645 645 645 645 645 645 645 645 645 645 645 645 645 645 645 645 645 645 645 645 645 645 13 645 645 645 645 645 645 645 645 645 645 3 13 645 645 645 645 645 10 645 645 645 645 645 645 645 645 645 645 645 645 645 645 645 645 645 645 645 645
645 645 0 645 645 645 645 645 645 6 645 645 645 645 1 645 645 645 645 645 645 15 645 645 645 645 645 645 645 645 645 645 645 645 645 645 645 645 645 645 645 645 645 645 645 645 645 645 645 645 645 645 645 645 645 645 645 645 645 645 645 645 645 645 645 645 645 6 645 645 645 645 8 645 645 645 645 645 645 645 645 645 645 645
17 645 645 0 645 645 645 645 645 645 645 645 645 645 645 645 16 645 645 645 645 645 645 16 645 645 645 645 645 645 645 645 645 645 645 16 645 645 645 645 645 645 11 645 645 645 645 645 645 645 645 645 645 645 645 645 645 645 645 645 645 645 645 645 12 645 645 645 645 15 645 18 645 645 645 645 645 645 645 645 645 645 645 645
645 645 645 645 0 645 645 645 645 645 645 645 645 645 645 645 645 645 645 645 645 645 15 645 645 645 645 645 645 645 645 645 9 645 645 645 645 645 645 645 14 645 645 645 645 645 645 645 645 645 645 645 645 645 11 645 645 645 645 645 645 645 645 645 645 645 645 645 645 645 645 645 645 645 645 645 645 4 645 645 645 645 645 645
645 645 645 645 645 0 645 645 645 645 645 645 645 645 645 645 645 645 645 645 645 645 645 645 645 645 645 645 645 645 645 645 645 645 645 645 645 8 11 645 645 645 645 645 645 645 645 645 645 645 645 645 645 645 645 645 645 645 645 645 645 6 645 9 645 645 8 645 645 645 645 645 645 645 645 645 645 645 645 645 10 645 15 645
645 645 645 645 645 645 0 645 645 645 645 645 645 645 645 645 645 645 645 645 645 3 645 645 645 645 645 645 5 645 645 645 645 645 645 645 645 645 645 645 645 645 645 645 645 645 645 645 645 645 16 645 645 645 645 645 645 645 645 645 645 645 645 645 645 645 645 645 645 645 645 645 645 645 645 645 19 645 645 645 645 645 645 645
645 645 645 645 645 645 645 0 645 645 645 645 645 645 645 645 645 645 645 645 645 645 645 645 645 645 645 645 645 645 19 645 645 645 645 645 645 645 645 645 645 645 645 645 18 645 645 5 645 645 24 645 645 645 645 645 645 645 645 645 645 645 13 645 645 645 645 645 8 645 645 645 645 645 27 645 23 645 645 645 645 645 645 645
645 645 645 645 645 645 645 645 0 645 645 645 645 645 645 645 645 645 645 645 645 645 645 645 645 645 645 645 645 645 24 645 645 645 12 645 645 645 645 645 645 645 645 15 645 645 645 645 645 645 645 645 10 645 645 8 645 645 645 645 645 645 645 645 645 645 645 645 645 645 645 645 645 645 645 645 645 645 12 645 645 645 645 645
645 645 6 645 645 645 645 645 645 0 645 645 645 645 5 645 645 645 645 645 645 645 645 645 645 645 645 645 645 645 645 645 645 645 645 645 645 645 645 645 645 645 645 645 645 645 645 645 645 645 645 3 645 645 47 645 645 645 29 645 645 645 645 645 645 645 645 645 645 645 645 645 645 645 645 645 645 645 645 645 645 645 645 645
645 645 645 645 645 645 645 645 645 645 0 645 645 4 645 11 645 645 645 645 645 645 7 645 645 645 645 645 645 645 645 645 645 645 645 645 645 645 645 645 645 645 645 645 645 645 645 645 645 645 645 645 645 645 645 645 645 645 11 645 645 645 645 645 645 3 645 645 645 645 645 645 645 645 645 645 645 645 645 645 645 645 645 645
645 645 645 645 645 645 645 645 645 645 645 0 645 645 645 645 645 19 645 645 645 645 645 645 645 645 645 645 645 645 645 645 645 6 74 645 645 645 645 21 645 645 645 645 645 645 645 645 645 645 645 645 645 645 645 645 645 645 645 42 645 645 645 645 645 645 645 645 645 645 645 645 645 645 645 645 645 645 645 645 645 645 645 645
645 24 645 645 645 645 645 645 645 645 645 645 0 645 645 645 645 21 645 645 645 645 645 645 645 645 645 645 645 645 645 17 645 645 645 645 645 645 645 13 645 645 645 645 645 645 645 645 15 645 645 645 645 7 645 645 645 21 645 645 645 645 645 645 645 645 645 645 645 645 645 645 645 10 645 645 645 645 645 645 645 645 645 645
645 645 645 645 645 645 645 645 645 645 4 645 645 0 645 10 645 645 645 645 645 645 645 645 645 645 645 645 645 645 645 645 645 645 645 645 645 645 645 645 645 645 645 645 645 645 645 645 645 645 25 645 645 645 645 645 645 645 645 645 645 645 645 645 645 1 645 645 645 645 645 645 645 645 5 645 645 645 645 645 645 645 645 645
645 645 1 645 645 645 645 645 645 5 645 645 645 645 0 645 645 645 645 645 645 645 645 645 645 645 645 645 645 645 645 645 645 645 645 645 645 645 645 645 645 645 645 645 645 645 645 645 645 645 645 8 645 645 645 645 645 645 645 645 645 645 645 645 645 645 645 5 645 645 645 645 645 645 645 645 645 645 645 645 645 645 645 645
645 645 645 645 645 645 645 645 645 645 11 645 645 10 645 0 645 645 645 645 645 645 15 645 645 645 16 645 645 645 645 645 645 645 645 645 645 645 645 645 8 645 645 645 645 645 645 645 645 645 645 645 645 645 645 645 645 645 645 645 645 645 19 645 645 645 645 645 645 645 645 645 645 645 8 645 645 645 645 645 645 645 645 645
645 645 645 16 645 645 645 645 645 645 645 645 645 645 645 645 0 645 645 645 645 645 645 645 645 645 645 645 645 645 645 645 645 645 645 645 645 645 645 645 645 645 8 645 645 645 645 645 645 1 645 645 645 645 645 645 645 645 645 645 645 645 645 645 645 645 645 645 645 645 645 22 645 645 645 645 645 645 645 645 8 645 21 645
645 22 645 645 645 645 645 645 645 645 645 19 21 645 645 645 645 0 645 645 13 645 645 645 645 645 645 645 645 18 645 645 645 21 645 645 645 645 645 19 645 645 645 645 645 645 645 645 645 645 645 645 645 645 645 645 645 645 645 645 645 645 645 645 645 645 645 645 645 645 645 645 645 645 645 645 645 645 645 645 645 645 645 645
645 645 645 645 645 645 645 645 645 645 645 645 645 645 645 645 645 645 0 645 645 645 645 645 645 645 645 645 645 645 645 645 645 645 645 645 645 645 2 645 645 645 645 645 645 9 645 645 645 645 645 645 645 645 645 645 645 645 645 645 645 645 645 645 645 645 645 645 645 645 645 645 645 645 645 5 645 645 645 645 645 645 4 645
645 645 645 645 645 645 645 645 645 645 645 645 645 645 645 645 645 645 645 0 645 645 645 645 645 645 645 645 645 645 645 645 2 645 645 645 645 645 645 645 645 17 8 645 645 645 645 645 645 13 645 645 645 645 645 645 645 645 645 645 645 645 645 645 12 645 645 645 645 645 645 645 645 645 645 645 645 11 645 645 645 645 645 645
645 11 645 645 645 645 645 645 645 645 645 645 645 645 645 645 645 13 645 645 0 645 645 645 645 11 645 645 645 13 645 645 645 645 645 645 645 645 645 645 645 645 645 645 645 11 645 645 645 645 645 645 645 645 645 645 645 645 645 645 645 645 645 645 645 645 645 645 645 645 645 645 645 645 645 645 645 645 645 645 645 645 645 645
645 645 15 645 645 645 3 645 645 645 645 645 645 645 645 645 645 645 645 645 645 0 645 645 645 645 645 645 6 645 645 645 645 645 645 645 645 645 645 645 645 645 645 44 645 645 645 645 645 645 645 645 645 645 645 645 645 645 645 645 645 645 645 645 645 645 645 645 645 645 645 645 8 645 645 645 21 645 51 645 645 645 645 645
645 645 645 645 15 645 645 645 645 645 7 645 645 645 645 15 645 645 645 645 645 645 0 645 645 645 645 645 645 645 645 645 645 645 645 645 645 645 645 645 17 645 645 645 645 645 645 645 645 645 645 645 645 645 12 645 645 645 9 645 645 645 645 645 645 645 645 645 645 645 645 645 645 645 645 645 645 645 645 645 645 645 645 645
645 645 645 16 645 645 645 645 645 645 645 645 645 645 645 645 645 645 645 645 645 645 645 0 645 645 645 645 645 645 645 645 645 645 645 13 24 645 645 645 645 645 645 645 645 645 645 645 645 645 645 645 645 645 645 645 645 645 645 645 645 645 645 645 645 645 645 645 645 5 645 645 645 645 645 645 645 645 645 645 645 645 645 645
645 645 645 645 645 645 645 645 645 645 645 645 645 645 645 645 645 645 645 645 645 645 645 645 0 645 6 645 645 645 645 645 645 645 645 645 645 645 645 645 12 645 645 645 645 645 645 645 645 13 645 645 645 645 645 645 645 645 645 645 3 645 645 645 645 645 645 645 645 645 645 645 645 645 645 645 645 645 645 645 645 645 645 6
645 645 645 645 645 645 645 645 645 645 645 645 645 645 645 645 645 645 645 645 11 645 645 645 645 0 645 645 645 8 645 645 645 645 645 645 645 645 645 645 645 645 645 645 645 8 645 645 645 645 645 645 645 645 645 645 645 645 645 645 645 645 645 645 645 645 645 645 645 645 6 645 645 645 645 13 645 645 645 645 645 645 645 645
645 645 645 645 645 645 645 645 645 645 645 645 645 645 645 16 645 645 645 645 645 645 645 645 6 645 0 645 645 645 645 645 645 645 645 645 645 645 645 645 15 645 645 645 645 645 645 645 645 645 645 645 645 645 645 645 645 645 645 645 645 645 8 645 645 645 645 645 645 645 645 645 645 645 645 645 645 645 645 645 645 645 645 1
645 645 645 645 645 645 645 645 645 645 645 645 645 645 645 645 645 645 645 645 645 645 645 645 645 645 645 0 645 645 645 645 645 645 645 645 645 645 645 645 645 645 645 645 645 645 12 645 16 645 645 645 645 645 645 645 645 11 645 645 645 645 645 645 645 645 645 645 15 645 645 645 645 645 645 645 645 645 645 6 645 645 645 14
645 645 645 645 645 645 5 645 645 645 645 645 645 645 645 645 645 645 645 645 645 6 645 645 645 645 645 645 0 645 645 645 645 645 645 645 645 645 645 645 645 645 645 645 645 645 645 645 645 645 15 16 645 645 645 645 645 645 645 645 645 645 645 645 645 30 645 9 645 645 645 645 8 645 645 645 645 645 645 645 645 645 645 645
645 645 645 645 645 645 645 645 645 645 645 645 645 645 645 645 645 18 645 645 13 645 645 645 645 8 645 645 645 0 645 645 645 28 645 645 645 645 645 645 645 645 645 645 645 645 645 645 645 645 645 645 645 645 645 645 645 645 645 645 645 645 645 645 645 645 645 645 645 645 8 645 645 645 645 645 645 645 645 645 645 645 645 645
645 645 645 645 645 645 645 19 24 645 645 645 645 645 645 645 645 645 645 645 645 645 645 645 645 645 645 645 645 645 0 34 645 645 645 645 645 645 645 645 645 645 645 16 7 645 645 645 645 645 645 645 24 645 645 645 645 645 645 645 645 645 645 645 645 645 645 645 22 645 645 645 645 645 645 645 645 645 645 645 645 645 645 645
645 645 645 645 645 645 645 645 645 645 645 645 17 645 645 645 645 645 645 645 645 645 645 645 645 645 645 645 645 645 34 0 645 645 645 645 645 645 645 645 645 645 645 645 645 645 645 645 15 645 645 645 27 13 645 645 645 645 645 14 645 645 645 645 645 645 645 645 25 645 645 645 645 645 645 645 645 645 645 645 645 645 645 645
645 645 645 645 9 645 645 645 645 645 645 645 645 645 645 645 645 645 645 2 645 645 645 645 645 645 645 645 645 645 645 645 0 645 645 645 645 645 645 645 14 645 645 645 645 645 645 645 645 14 645 645 645 645 645 645 645 645 645 645 645 645 645 645 645 645 645 645 645 645 645 645 645 645 645 645 645 10 645 645 645 645 645 645
645 645 645 645 645 645 645 645 645 645 645 6 645 645 645 645 645 21 645 645 645 645 645 645 645 645 645 645 645 28 645 645 645 0 645 645 645 645 645 645 645 645 645 645 645 645 645 645 645 645 645 645 645 645 645 645 645 645 645 645 645 645 645 645 645 645 645 645 645 645 36 645 645 645 645 645 645 645 645 645 645 645 645 645
645 645 645 645 645 645 645 645 12 645 645 74 645 645 645 645 645 645 645 645 645 645 645 645 645 645 645 645 645 645 645 645 645 645 0 645 645 645 645 645 645 645 645 645 645 645 645 645 645 645 645 645 8 645 645 14 645 645 645 32 645 645 645 645 645 645 645 645 645 645 645 645 645 645 645 645 645 645 645 645 645 645 645 645
9 645 645 16 645 645 645 645 645 645 645 645 645 645 645 645 645 645 645 645 645 645 645 13 645 645 645 645 645 645 645 645 645 645 645 0 645 645 645 645 645 645 645 645 645 645 645 645 645 645 645 645 645 645 645 645 645 645 645 645 645 645 645 645 645 645 645 645 645 645 34 645 645 645 645 645 645 645 645 645 645 645 645 645
645 645 645 645 645 645 645 645 645 645 645 645 645 645 645 645 645 645 645 645 645 645 645 24 645 645 645 645 645 645 645 645 645 645 645 645 0 645 645 645 645 8 645 645 645 645 645 645 645 645 645 645 645 645 25 645 645 645 645 645 645 645 645 645 14 645 645 645 645 20 645 645 645 645 645 645 645 645 645 645 645 645 645 645
645 645 645 645 645 8 645 645 645 645 645 645 645 645 645 645 645 645 645 645 645 645 645 645 645 645 645 645 645 645 645 645 645 645 645 645 645 0 645 645 645 645 645 645 645 645 645 645 645 645 645 645 645 645 645 645 645 645 645 645 8 9 645 645 645 645 645 645 645 645 645 645 645 645 645 645 645 645 645 11 4 645 645 645
645 645 645 645 645 11 645 645 645 645 645 645 645 645 645 645 645 645 2 645 645 645 645 645 645 645 645 645 645 645 645 645 645 645 645 645 645 645 0 645 645 645 645 645 645 9 645 645 645 645 645 645 645 645 645 645 645 645 645 645 645 645 645 4 645 645 645 645 645 645 645 645 645 645 645 645 645 645 645 645 645 645 6 645
645 645 645 645 645 645 645 645 645 645 645 21 13 645 645 645 645 19 645 645 645 645 645 645 645 645 645 645 645 645 645 645 645 645 645 645 645 645 645 0 645 645 645 645 645 645 645 645 645 645 645 645 645 645 645 645 645 645 645 21 645 645 645 645 645 645 645 645 645 645 645 645 645 8 645 645 645 645 645 645 645 645 645 645
645 645 645 645 14 645 645 645 645 645 645 645 645 645 645 8 645 645 645 645 645 645 17 645 12 645 15 645 645 645 645 645 14 645 645 645 645 645 645 645 0 645 645 645 645 645 645 645 645 17 645 645 645 645 645 645 645 645 645 645 645 645 645 645 645 645 645 645 645 645 645 645 645 645 645 645 645 645 645 645 645 645 645 645
645 645 645 645 645 645 645 645 645 645 645 645 645 645 645 645 645 645 645 17 645 645 645 645 645 645 645 645 645 645 645 645 645 645 645 645 8 645 645 645 645 0 645 645 645 645 645 645 645 645 645 645 645 645 17 645 645 645 645 645 645 645 645 645 15 645 645 645 645 645 645 645 645 645 645 645 645 11 645 645 645 645 645 645
645 645 645 11 645 645 645 645 645 645 645 645 645 645 645 645 8 645 645 8 645 645 645 645 645 645 645 645 645 645 645 645 645 645 645 645 645 645 645 645 645 645 0 645 645 645 645 645 645 7 645 645 645 645 645 645 645 645 645 645 645 645 645 645 13 645 645 645 645 645 645 645 645 645 645 645 645 645 645 645 645 645 645 645
645 645 645 645 645 645 645 645 15 645 645 645 645 645 645 645 645 645 645 645 645 44 645 645 645 645 645 645 645 645 16 645 645 645 645 645 645 645 645 645 645 645 645 0 19 645 645 645 645 645 645 645 645 645 645 645 645 645 645 645 645 645 645 645 645 645 645 645 645 645 645 645 645 645 645 645 28 645 8 645 645 645 645 645
645 645 645 645 645 645 645 18 645 645 645 645 645 645 645 645 645 645 645 645 645 645 645 645 645 645 645 645 645 645 7 645 645 645 645 645 645 645 645 645 645 645 645 19 0 645 645 645 645 645 645 645 645 645 645 645 645 645 645 645 645 645 645 645 645 645 645 645 645 645 645 645 645 645 645 645 12 645 645 645 645 645 645 645
645 13 645 645 645 645 645 645 645 645 645 645 645 645 645 645 645 645 9 645 11 645 645 645 645 8 645 645 645 645 645 645 645 645 645 645 645 645 9 645 645 645 645 645 645 0 645 645 645 645 645 645 645 645 645 645 645 645 645 645 645 645 645 9 645 645 645 645 645 645 645 645 645 645 645 7 645 645 645 645 645 645 645 645
645 645 645 645 645 645 645 645 645 645 645 645 645 645 645 645 645 645 645 645 645 645 645 645 645 645 645 12 645 645 645 645 645 645 645 645 645 645 645 645 645 645 645 645 645 645 0 8 645 645 645 645 645 645 645 645 645 645 645 645 645 645 2 645 645 645 645 645 12 645 645 645 645 645 645 645 645 645 645 645 645 645 645 9
645 645 645 645 645 645 645 5 645 645 645 645 645 645 645 645 645 645 645 645 645 645 645 645 645 645 645 645 645 645 645 645 645 645 645 645 645 645 645 645 645 645 645 645 645 645 8 0 645 645 645 645 645 645 645 645 645 645 645 645 645 645 10 645 645 645 645 645 6 645 645 645 645 645 645 645 645 645 645 645 645 645 645 645
645 645 645 645 645 645 645 645 645 645 645 645 15 645 645 645 645 645 645 645 645 645 645 645 645 645 645 16 645 645 645 15 645 645 645 645 645 645 645 645 645 645 645 645 645 645 645 645 0 645 645 645 645 645 645 645 645 11 645 645 645 645 645 645 645 645 645 645 20 645 645 645 645 645 645 645 645 645 645 645 645 645 645 645
645 645 645 645 645 645 645 645 645 645 645 645 645 645 645 645 1 645 645 13 645 645 645 645 13 645 645 645 645 645 645 645 14 645 645 645 645 645 645 645 17 645 7 645 645 645 645 645 645 0 645 645 645 645 645 645 645 645 645 645 11 645 645 645 645 645 645 645 645 645 645 645 645 645 645 645 645 645 645 645 8 645 645 645
645 645 645 645 645 645 16 24 645 645 645 645 645 25 645 645 645 645 645 645 645 645 645 645 645 645 645 645 15 645 645 645 645 645 645 645 645 645 645 645 645 645 645 645 645 645 645 645 645 645 0 645 645 645 645 645 645 645 645 645 645 645 645 645 645 26 645 645 645 645 645 645 645 645 23 645 9 645 645 645 645 645 645 645
645 645 645 645 645 645 645 645 645 3 645 645 645 645 8 645 645 645 645 645 645 645 645 645 645 645 645 645 16 645 645 645 645 645 645 645 645 645 645 645 645 645 645 645 645 645 645 645 645 645 645 0 645 645 645 645 645 645 26 645 645 645 645 645 645 28 645 11 645 645 645 645 645 645 645 645 645 645 645 645 645 645 645 645
645 645 645 645 645 645 645 645 10 645 645 645 645 645 645 645 645 645 645 645 645 645 645 645 645 645 645 645 645 645 24 27 645 645 8 645 645 645 645 645 645 645 645 645 645 645 645 645 645 645 645 645 0 645 645 645 645 645 645 31 645 645 645 645 645 645 645 645 645 645 645 645 645 645 645 645 645 645 645 645 645 645 645 645
645 645 645 645 645 645 645 645 645 645 645 645 7 645 645 645 645 645 645 645 645 645 645 645 645 645 645 645 645 645 645 13 645 645 645 645 645 645 645 645 645 645 645 645 645 645 645 645 645 645 645 645 645 0 645 645 645 645 645 11 645 645 645 645 645 645 645 645 645 645 645 645 645 7 645 645 645 645 645 645 645 3 645 645
645 645 645 645 11 645 645 645 645 47 645 645 645 645 645 645 645 645 645 645 645 645 12 645 645 645 645 645 645 645 645 645 645 645 645 645 25 645 645 645 645 17 645 645 645 645 645 645 645 645 645 645 645 645 0 645 645 645 18 645 645 645 645 645 645 645 645 645 645 645 645 645 645 645 645 645 645 11 645 645 645 645 645 645
645 645 645 645 645 645 645 645 8 645 645 645 645 645 645 645 645 645 645 645 645 645 645 645 645 645 645 645 645 645 645 645 645 645 14 645 645 645 645 645 645 645 645 645 645 645 645 645 645 645 645 645 645 645 645 0 645 645 645 645 645 645 645 645 645 645 645 645 645 645 645 645 645 645 645 645 645 645 13 645 645 645 645 645
645 3 645 645 645 645 645 645 645 645 645 645 645 645 645 645 645 645 645 645 645 645 645 645 645 645 645 645 645 645 645 645 645 645 645 645 645 645 645 645 645 645 645 645 645 645 645 645 645 645 645 645 645 645 645 645 0 11 645 645 645 645 645 9 645 645 3 645 645 645 645 645 645 645 645 645 645 645 645 645 645 645 645 645
645 13 645 645 645 645 645 645 645 645 645 645 21 645 645 645 645 645 645 645 645 645 645 645 645 645 645 11 645 645 645 645 645 645 645 645 645 645 645 645 645 645 645 645 645 645 645 645 11 645 645 645 645 645 645 645 11 0 645 645 645 11 645 645 645 645 11 645 645 645 645 645 645 645 645 645 645 645 645 10 645 645 645 645
645 645 645 645 645 645 645 645 645 29 11 645 645 645 645 645 645 645 645 645 645 645 9 645 645 645 645 645 645 645 645 645 645 645 645 645 645 645 645 645 645 645 645 645 645 645 645 645 645 645 645 26 645 645 18 645 645 645 0 645 645 645 645 645 645 12 645 645 645 645 645 645 645 645 645 645 645 645 645 645 645 645 645 645
645 645 645 645 645 645 645 645 645 645 645 42 645 645 645 645 645 645 645 645 645 645 645 645 645 645 645 645 645 645 645 14 645 645 32 645 645 645 645 21 645 645 645 645 645 645 645 645 645 645 645 645 31 11 645 645 645 645 645 0 645 645 645 645 645 645 645 645 645 645 645 645 645 14 645 645 645 645 645 645 645 9 645 645
645 645 645 645 645 645 645 645 645 645 645 645 645 645 645 645 645 645 645 645 645 645 645 645 3 645 645 645 645 645 645 645 645 645 645 645 645 8 645 645 645 645 645 645 645 645 645 645 645 11 645 645 645 645 645 645 645 645 645 645 0 645 645 645 645 645 645 645 645 645 645 645 645 645 645 645 645 645 645 15 8 645 645 8
645 645 645 645 645 6 645 645 645 645 645 645 645 645 645 645 645 645 645 645 645 645 645 645 645 645 645 645 645 645 645 645 645 645 645 645 645 9 645 645 645 645 645 645 645 645 645 645 645 645 645 645 645 645 645 645 645 11 645 645 645 0 645 645 645 645 8 645 645 645 645 645 645 645 645 645 645 645 645 6 645 645 645 645
645 645 645 645 645 645 645 13 645 645 645 645 645 645 645 19 645 645 645 645 645 645 645 645 645 645 8 645 645 645 645 645 645 645 645 645 645 645 645 645 645 645 645 645 645 645 2 10 645 645 645 645 645 645 645 645 645 645 645 645 645 645 0 645 645 645 645 645 645 645 645 645 645 645 21 645 645 645 645 645 645 645 645 8
645 10 645 645 645 9 645 645 645 645 645 645 645 645 645 645 645 645 645 645 645 645 645 645 645 645 645 645 645 645 645 645 645 645 645 645 645 645 4 645 645 645 645 645 645 9 645 645 645 645 645 645 645 645 645 645 9 645 645 645 645 645 645 0 645 645 8 645 645 645 645 645 645 645 645 645 645 645 645 645 645 645 645 645
645 645 645 12 645 645 645 645 645 645 645 645 645 645 645 645 645 645 645 12 645 645 645 645 645 645 645 645 645 645 645 645 645 645 645 645 14 645 645 645 645 15 13 645 645 645 645 645 645 645 645 645 645 645 645 645 645 645 645 645 645 645 645 645 0 645 645 645 645 13 645 645 645 645 645 645 645 645 645 645 645 645 645 645
645 645 645 645 645 645 645 645 645 645 3 645 645 1 645 645 645 645 645 645 645 645 645 645 645 645 645 645 30 645 645 645 645 645 645 645 645 645 645 645 645 645 645 645 645 645 645 645 645 645 26 28 645 645 645 645 645 645 12 645 645 645 645 645 645 0 645 645 645 645 645 645 645 645 645 645 645 645 645 645 645 645 645 645
645 645 645 645 645 8 645 645 645 645 645 645 645 645 645 645 645 645 645 645 645 645 645 645 645 645 645 645 645 645 645 645 645 645 645 645 645 645 645 645 645 645 645 645 645 645 645 645 645 645 645 645 645 645 645 645 3 11 645 645 645 8 645 8 645 645 0 645 645 645 645 645 645 645 645 645 645 645 645 645 645 645 645 645
645 645 6 645 645 645 645 645 645 645 645 645 645 645 5 645 645 645 645 645 645 645 645 645 645 645 645 645 9 645 645 645 645 645 645 645 645 645 645 645 645 645 645 645 645 645 645 645 645 645 645 11 645 645 645 645 645 645 645 645 645 645 645 645 645 645 645 0 645 645 645 645 3 645 645 645 645 645 645 645 645 645 645 645
645 645 645 645 645 645 645 8 645 645 645 645 645 645 645 645 645 645 645 645 645 645 645 645 645 645 645 15 645 645 22 25 645 645 645 645 645 645 645 645 645 645 645 645 645 645 12 6 20 645 645 645 645 645 645 645 645 645 645 645 645 645 645 645 645 645 645 645 0 645 645 645 645 645 645 645 645 645 645 645 645 645 645 645
645 645 645 15 645 645 645 645 645 645 645 645 645 645 645 645 645 645 645 645 645 645 645 5 645 645 645 645 645 645 645 645 645 645 645 645 20 645 645 645 645 645 645 645 645 645 645 645 645 645 645 645 645 645 645 645 645 645 645 645 645 645 645 645 13 645 645 645 645 0 645 645 645 645 645 645 645 645 645 645 645 645 645 645
25 645 645 645 645 645 645 645 645 645 645 645 645 645 645 645 645 645 645 645 645 645 645 645 645 6 645 645 645 8 645 645 645 36 645 34 645 645 645 645 645 645 645 645 645 645 645 645 645 645 645 645 645 645 645 645 645 645 645 645 645 645 645 645 645 645 645 645 645 645 0 645 645 645 645 16 645 645 645 645 645 645 645 645
10 645 645 18 645 645 645 645 645 645 645 645 645 645 645 645 22 645 645 645 645 645 645 645 645 645 645 645 645 645 645 645 645 645 645 645 645 645 645 645 645 645 645 645 645 645 645 645 645 645 645 645 645 645 645 645 645 645 645 645 645 645 645 645 645 645 645 645 645 645 645 0 645 645 645 7 645 645 645 645 645 645 4 645
645 645 8 645 645 645 645 645 645 645 645 645 645 645 645 645 645 645 645 645 645 8 645 645 645 645 645 645 8 645 645 645 645 645 645 645 645 645 645 645 645 645 645 645 645 645 645 645 645 645 645 645 645 645 645 645 645 645 645 645 645 645 645 645 645 645 645 3 645 645 645 645 0 645 645 645 645 645 645 645 645 645 645 645
645 645 645 645 645 645 645 645 645 645 645 645 10 645 645 645 645 645 645 645 645 645 645 645 645 645 645 645 645 645 645 645 645 645 645 645 645 645 645 8 645 645 645 645 645 645 645 645 645 645 645 645 645 7 645 645 645 645 645 14 645 645 645 645 645 645 645 645 645 645 645 645 645 0 645 645 645 645 645 645 645 5 645 645
645 645 645 645 645 645 645 27 645 645 645 645 645 5 645 8 645 645 645 645 645 645 645 645 645 645 645 645 645 645 645 645 645 645 645 645 645 645 645 645 645 645 645 645 645 645 645 645 645 645 23 645 645 645 645 645 645 645 645 645 645 645 21 645 645 645 645 645 645 645 645 645 645 645 0 645 645 645 645 645 645 645 645 645
15 645 645 645 645 645 645 645 645 645 645 645 645 645 645 645 645 645 5 645 645 645 645 645 645 13 645 645 645 645 645 645 645 645 645 645 645 645 645 645 645 645 645 645 645 7 645 645 645 645 645 645 645 645 645 645 645 645 645 645 645 645 645 645 645 645 645 645 645 645 16 7 645 645 645 0 645 645 645 645 645 645 6 645
645 645 645 645 645 645 19 23 645 645 645 645 645 645 645 645 645 645 645 645 645 21 645 645 645 645 645 645 645 645 645 645 645 645 645 645 645 645 645 645 645 645 645 28 12 645 645 645 645 645 9 645 645 645 645 645 645 645 645 645 645 645 645 645 645 645 645 645 645 645 645 645 645 645 645 645 0 645 645 645 645 645 645 645
645 645 645 645 4 645 645 645 645 645 645 645 645 645 645 645 645 645 645 11 645 645 645 645 645 645 645 645 645 645 645 645 10 645 645 645 645 645 645 645 645 11 645 645 645 645 645 645 645 645 645 645 645 645 11 645 645 645 645 645 645 645 645 645 645 645 645 645 645 645 645 645 645 645 645 645 645 0 645 645 645 645 645 645
645 645 645 645 645 645 645 645 12 645 645 645 645 645 645 645 645 645 645 645 645 51 645 645 645 645 645 645 645 645 645 645 645 645 645 645 645 645 645 645 645 645 645 8 645 645 645 645 645 645 645 645 645 645 645 13 645 645 645 645 645 645 645 645 645 645 645 645 645 645 645 645 645 645 645 645 645 645 0 645 645 645 645 645
645 645 645 645 645 645 645 645 645 645 645 645 645 645 645 645 645 645 645 645 645 645 645 645 645 645 645 6 645 645 645 645 645 645 645 645 645 11 645 645 645 645 645 645 645 645 645 645 645 645 645 645 645 645 645 645 645 10 645 645 15 6 645 645 645 645 645 645 645 645 645 645 645 645 645 645 645 645 645 0 645 645 645 15
645 645 645 645 645 10 645 645 645 645 645 645 645 645 645 645 8 645 645 645 645 645 645 645 645 645 645 645 645 645 645 645 645 645 645 645 645 4 645 645 645 645 645 645 645 645 645 645 645 8 645 645 645 645 645 645 645 645 645 645 8 645 645 645 645 645 645 645 645 645 645 645 645 645 645 645 645 645 645 645 0 645 19 645
645 645 645 645 645 645 645 645 645 645 645 645 645 645 645 645 645 645 645 645 645 645 645 645 645 645 645 645 645 645 645 645 645 645 645 645 645 645 645 645 645 645 645 645 645 645 645 645 645 645 645 645 645 3 645 645 645 645 645 9 645 645 645 645 645 645 645 645 645 645 645 645 645 5 645 645 645 645 645 645 645 0 645 645
645 645 645 645 645 15 645 645 645 645 645 645 645 645 645 645 21 645 4 645 645 645 645 645 645 645 645 645 645 645 645 645 645 645 645 645 645 645 6 645 645 645 645 645 645 645 645 645 645 645 645 645 645 645 645 645 645 645 645 645 645 645 645 645 645 645 645 645 645 645 645 4 645 645 645 6 645 645 645 645 19 645 0 645
645 645 645 645 645 645 645 645 645 645 645 645 645 645 645 645 645 645 645 645 645 645 645 645 6 645 1 14 645 645 645 645 645 645 645 645 645 645 645 645 645 645 645 645 645 645 9 645 645 645 645 645 645 645 645 645 645 645 645 645 8 645 8 645 645 645 645 645 645 645 645 645 645 645 645 645 645 645 645 15 645 645 645 0
EOF
